NAME : Instance 14
COMMENT : Comment 14
TYPE : TSP
DIMENSION: 30
EDGE_WEIGHT_TYPE : EUC_2D
NODE_COORD_SECTION
  1 1186 422
  2 1263 121
  3 754 1521
  4 1460 412
  5 714 288
  6 700 1900
  7 1401 534
  8 1286 1107
  9 151 1182
  10 1999 1221
  11 223 1587
  12 884 1876
  13 1238 1232
  14 1134 1926
  15 1442 1850
  16 1567 682
  17 1464 340
  18 1061 1150
  19 87 382
  20 1688 1191
  21 15 1654
  22 1679 394
  23 1930 500
  24 242 938
  25 1674 575
  26 346 1589
  27 747 1604
  28 735 1267
  29 550 803
  30 1801 277
EOF
